Generated by VASPKIT code
 1.000000
    8.3157818399999996    0.0000000000000000    0.0000000000000006
   -0.0000000000000006    8.3157818399999996    0.0000000000000006
    0.0000000000000000    0.0000000000000000    8.3157818399999996
   Eu  Eu   B
     4   4   48
Direct
    0.0000000000000000    0.0000000000000000    0.0000000000000000    Eu001
    0.0000000000000000    0.0000000000000000    0.5000000000000000    Eu002
    0.0000000000000000    0.5000000000000000    0.0000000000000000    Eu003
    0.0000000000000000    0.5000000000000000    0.5000000000000000    Eu004
    0.5000000000000000    0.0000000000000000    0.0000000000000000    Eu005
    0.5000000000000000    0.0000000000000000    0.5000000000000000    Eu006
    0.5000000000000000    0.5000000000000000    0.0000000000000000    Eu007
    0.5000000000000000    0.5000000000000000    0.5000000000000000    Eu008
    0.3991586000000000    0.2500000000000000    0.2500000000000000     B001
    0.3991586000000000    0.2500000000000000    0.7500000000000000     B002
    0.3991586000000000    0.7500000000000000    0.2500000000000000     B003
    0.3991586000000000    0.7500000000000000    0.7500000000000000     B004
    0.8991586000000000    0.2500000000000000    0.2500000000000000     B005
    0.8991586000000000    0.2500000000000000    0.7500000000000000     B006
    0.8991586000000000    0.7500000000000000    0.2500000000000000     B007
    0.8991586000000000    0.7500000000000000    0.7500000000000000     B008
    0.1008414000000000    0.2500000000000000    0.2500000000000000     B009
    0.1008414000000000    0.2500000000000000    0.7500000000000000     B010
    0.1008414000000000    0.7500000000000000    0.2500000000000000     B011
    0.1008414000000000    0.7500000000000000    0.7500000000000000     B012
    0.6008414000000000    0.2500000000000000    0.2500000000000000     B013
    0.6008414000000000    0.2500000000000000    0.7500000000000000     B014
    0.6008414000000000    0.7500000000000000    0.2500000000000000     B015
    0.6008414000000000    0.7500000000000000    0.7500000000000000     B016
    0.2500000000000000    0.2500000000000000    0.3991586000000000     B017
    0.2500000000000000    0.2500000000000000    0.8991586000000000     B018
    0.2500000000000000    0.7500000000000000    0.3991586000000000     B019
    0.2500000000000000    0.7500000000000000    0.8991586000000000     B020
    0.7500000000000000    0.2500000000000000    0.3991586000000000     B021
    0.7500000000000000    0.2500000000000000    0.8991586000000000     B022
    0.7500000000000000    0.7500000000000000    0.3991586000000000     B023
    0.7500000000000000    0.7500000000000000    0.8991586000000000     B024
    0.2500000000000000    0.2500000000000000    0.1008414000000000     B025
    0.2500000000000000    0.2500000000000000    0.6008414000000000     B026
    0.2500000000000000    0.7500000000000000    0.1008414000000000     B027
    0.2500000000000000    0.7500000000000000    0.6008414000000000     B028
    0.7500000000000000    0.2500000000000000    0.1008414000000000     B029
    0.7500000000000000    0.2500000000000000    0.6008414000000000     B030
    0.7500000000000000    0.7500000000000000    0.1008414000000000     B031
    0.7500000000000000    0.7500000000000000    0.6008414000000000     B032
    0.2500000000000000    0.1008414000000000    0.2500000000000000     B033
    0.2500000000000000    0.1008414000000000    0.7500000000000000     B034
    0.2500000000000000    0.6008414000000000    0.2500000000000000     B035
    0.2500000000000000    0.6008414000000000    0.7500000000000000     B036
    0.7500000000000000    0.1008414000000000    0.2500000000000000     B037
    0.7500000000000000    0.1008414000000000    0.7500000000000000     B038
    0.7500000000000000    0.6008414000000000    0.2500000000000000     B039
    0.7500000000000000    0.6008414000000000    0.7500000000000000     B040
    0.2500000000000000    0.3991586000000000    0.2500000000000000     B041
    0.2500000000000000    0.3991586000000000    0.7500000000000000     B042
    0.2500000000000000    0.8991586000000000    0.2500000000000000     B043
    0.2500000000000000    0.8991586000000000    0.7500000000000000     B044
    0.7500000000000000    0.3991586000000000    0.2500000000000000     B045
    0.7500000000000000    0.3991586000000000    0.7500000000000000     B046
    0.7500000000000000    0.8991586000000000    0.2500000000000000     B047
    0.7500000000000000    0.8991586000000000    0.7500000000000000     B048

