0.020   6   6   6   20  0.010  106    1  106           # Parameters to Generate KPOINTS (Do NOT Edit This Line)
   126
Reciprocal lattice
    0.00000000000000    0.00000000000000    0.00000000000000     1
    0.16666666666667    0.00000000000000    0.00000000000000     6
    0.33333333333333    0.00000000000000    0.00000000000000     6
    0.50000000000000    0.00000000000000    0.00000000000000     3
    0.16666666666667    0.16666666666667    0.00000000000000    12
    0.33333333333333    0.16666666666667    0.00000000000000    24
    0.50000000000000    0.16666666666667    0.00000000000000    12
    0.33333333333333    0.33333333333333    0.00000000000000    12
    0.50000000000000    0.33333333333333    0.00000000000000    12
    0.50000000000000    0.50000000000000    0.00000000000000     3
    0.16666666666667    0.16666666666667    0.16666666666667     8
    0.33333333333333    0.16666666666667    0.16666666666667    24
    0.50000000000000    0.16666666666667    0.16666666666667    12
    0.33333333333333    0.33333333333333    0.16666666666667    24
    0.50000000000000    0.33333333333333    0.16666666666667    24
    0.50000000000000    0.50000000000000    0.16666666666667     6
    0.33333333333333    0.33333333333333    0.33333333333333     8
    0.50000000000000    0.33333333333333    0.33333333333333    12
    0.50000000000000    0.50000000000000    0.33333333333333     6
    0.50000000000000    0.50000000000000    0.50000000000000     1
    0.00000000000000    0.00000000000000    0.00000000000000     0
    0.00952380952381    0.00952380952381    0.00000000000000     0
    0.01904761904762    0.01904761904762    0.00000000000000     0
    0.02857142857143    0.02857142857143    0.00000000000000     0
    0.03809523809524    0.03809523809524    0.00000000000000     0
    0.04761904761905    0.04761904761905    0.00000000000000     0
    0.05714285714286    0.05714285714286    0.00000000000000     0
    0.06666666666667    0.06666666666667    0.00000000000000     0
    0.07619047619048    0.07619047619048    0.00000000000000     0
    0.08571428571429    0.08571428571429    0.00000000000000     0
    0.09523809523810    0.09523809523810    0.00000000000000     0
    0.10476190476190    0.10476190476190    0.00000000000000     0
    0.11428571428571    0.11428571428571    0.00000000000000     0
    0.12380952380952    0.12380952380952    0.00000000000000     0
    0.13333333333333    0.13333333333333    0.00000000000000     0
    0.14285714285714    0.14285714285714    0.00000000000000     0
    0.15238095238095    0.15238095238095    0.00000000000000     0
    0.16190476190476    0.16190476190476    0.00000000000000     0
    0.17142857142857    0.17142857142857    0.00000000000000     0
    0.18095238095238    0.18095238095238    0.00000000000000     0
    0.19047619047619    0.19047619047619    0.00000000000000     0
    0.20000000000000    0.20000000000000    0.00000000000000     0
    0.20952380952381    0.20952380952381    0.00000000000000     0
    0.21904761904762    0.21904761904762    0.00000000000000     0
    0.22857142857143    0.22857142857143    0.00000000000000     0
    0.23809523809524    0.23809523809524    0.00000000000000     0
    0.24761904761905    0.24761904761905    0.00000000000000     0
    0.25714285714286    0.25714285714286    0.00000000000000     0
    0.26666666666667    0.26666666666667    0.00000000000000     0
    0.27619047619048    0.27619047619048    0.00000000000000     0
    0.28571428571429    0.28571428571429    0.00000000000000     0
    0.29523809523810    0.29523809523810    0.00000000000000     0
    0.30476190476190    0.30476190476190    0.00000000000000     0
    0.31428571428571    0.31428571428571    0.00000000000000     0
    0.32380952380952    0.32380952380952    0.00000000000000     0
    0.33333333333333    0.33333333333333    0.00000000000000     0
    0.34285714285714    0.34285714285714    0.00000000000000     0
    0.35238095238095    0.35238095238095    0.00000000000000     0
    0.36190476190476    0.36190476190476    0.00000000000000     0
    0.37142857142857    0.37142857142857    0.00000000000000     0
    0.38095238095238    0.38095238095238    0.00000000000000     0
    0.39047619047619    0.39047619047619    0.00000000000000     0
    0.40000000000000    0.40000000000000    0.00000000000000     0
    0.40952380952381    0.40952380952381    0.00000000000000     0
    0.41904761904762    0.41904761904762    0.00000000000000     0
    0.42857142857143    0.42857142857143    0.00000000000000     0
    0.43809523809524    0.43809523809524    0.00000000000000     0
    0.44761904761905    0.44761904761905    0.00000000000000     0
    0.45714285714286    0.45714285714286    0.00000000000000     0
    0.46666666666667    0.46666666666667    0.00000000000000     0
    0.47619047619048    0.47619047619048    0.00000000000000     0
    0.48571428571429    0.48571428571429    0.00000000000000     0
    0.49523809523810    0.49523809523810    0.00000000000000     0
   -0.49523809523810   -0.49523809523810    0.00000000000000     0
   -0.48571428571429   -0.48571428571429    0.00000000000000     0
   -0.47619047619048   -0.47619047619048    0.00000000000000     0
   -0.46666666666667   -0.46666666666667    0.00000000000000     0
   -0.45714285714286   -0.45714285714286    0.00000000000000     0
   -0.44761904761905   -0.44761904761905    0.00000000000000     0
   -0.43809523809524   -0.43809523809524    0.00000000000000     0
   -0.42857142857143   -0.42857142857143    0.00000000000000     0
   -0.41904761904762   -0.41904761904762    0.00000000000000     0
   -0.40952380952381   -0.40952380952381    0.00000000000000     0
   -0.40000000000000   -0.40000000000000    0.00000000000000     0
   -0.39047619047619   -0.39047619047619    0.00000000000000     0
   -0.38095238095238   -0.38095238095238    0.00000000000000     0
   -0.37142857142857   -0.37142857142857    0.00000000000000     0
   -0.36190476190476   -0.36190476190476    0.00000000000000     0
   -0.35238095238095   -0.35238095238095    0.00000000000000     0
   -0.34285714285714   -0.34285714285714    0.00000000000000     0
   -0.33333333333333   -0.33333333333333    0.00000000000000     0
   -0.32380952380952   -0.32380952380952    0.00000000000000     0
   -0.31428571428571   -0.31428571428571    0.00000000000000     0
   -0.30476190476190   -0.30476190476190    0.00000000000000     0
   -0.29523809523810   -0.29523809523810    0.00000000000000     0
   -0.28571428571429   -0.28571428571429    0.00000000000000     0
   -0.27619047619048   -0.27619047619048    0.00000000000000     0
   -0.26666666666667   -0.26666666666667    0.00000000000000     0
   -0.25714285714286   -0.25714285714286    0.00000000000000     0
   -0.24761904761905   -0.24761904761905    0.00000000000000     0
   -0.23809523809524   -0.23809523809524    0.00000000000000     0
   -0.22857142857143   -0.22857142857143    0.00000000000000     0
   -0.21904761904762   -0.21904761904762    0.00000000000000     0
   -0.20952380952381   -0.20952380952381    0.00000000000000     0
   -0.20000000000000   -0.20000000000000    0.00000000000000     0
   -0.19047619047619   -0.19047619047619    0.00000000000000     0
   -0.18095238095238   -0.18095238095238    0.00000000000000     0
   -0.17142857142857   -0.17142857142857    0.00000000000000     0
   -0.16190476190476   -0.16190476190476    0.00000000000000     0
   -0.15238095238095   -0.15238095238095    0.00000000000000     0
   -0.14285714285714   -0.14285714285714    0.00000000000000     0
   -0.13333333333333   -0.13333333333333    0.00000000000000     0
   -0.12380952380952   -0.12380952380952    0.00000000000000     0
   -0.11428571428571   -0.11428571428571    0.00000000000000     0
   -0.10476190476190   -0.10476190476190    0.00000000000000     0
   -0.09523809523810   -0.09523809523810    0.00000000000000     0
   -0.08571428571429   -0.08571428571429    0.00000000000000     0
   -0.07619047619048   -0.07619047619048    0.00000000000000     0
   -0.06666666666667   -0.06666666666667    0.00000000000000     0
   -0.05714285714286   -0.05714285714286    0.00000000000000     0
   -0.04761904761905   -0.04761904761905    0.00000000000000     0
   -0.03809523809524   -0.03809523809524    0.00000000000000     0
   -0.02857142857143   -0.02857142857143    0.00000000000000     0
   -0.01904761904762   -0.01904761904762    0.00000000000000     0
   -0.00952380952381   -0.00952380952381    0.00000000000000     0
    0.00000000000000    0.00000000000000    0.00000000000000     0
