ALGO = All
EDIFF = 1e-07
EDIFFG = -0.01
ENCUT = 700
ISTART = 0
IBRION = -1
ICHARG = 2
ISMEAR = -1
ISPIN = 2
LASPH = True
ADDGRID = True
METAGGA = R2SCAN
LREAL = Auto
LWAVE = True
LCHARG = True
LORBIT = 10
MAGMOM = 7.0 -7.0 -7.0 7.0 -7.0 7.0 7.0 -7.0 48*0.2
NELM = 500
NSW = 0
SIGMA = 0.01

AMIX = 0.2
BMIX = 0.0001
AMIX_MAG = 0.8
BMIX_MAG = 0.0001
